Maximize
  - 46 C0 + 9 C1 - 9 C2 - 24 C3
Subject To
 R0: C1 - C2 + C3 <= 0
 R1: - 5 C0 - 5 C1 - 4 C2 + 2 C3 <= 2
 R2: - C1 + C2 + 3 C3 <= 3
 R3: - 4 C0 + 2 C1 - 5 C3 <= 0
Bounds
 C0 free
 C1 free
 C2 free
 C3 free
Generals
 C0 C1 C2 C3
End
